proyfinal/src/viki/013/experimentInOfficeAgust.take6.output/d4d40d48-9b96-4b29-a864-58e09d9ada36.als.dat
{'cnf.clauses': '118081',
 'cnf.totvars': '69608',
 'conflict literals': '873',
 'conflicts': '158',
 'decisions': '10894',
 'memused.mb': '18.49',
 'outcome': 'UNSAT',
 'propagations': '153845',
 'restarts': '2',
 'solver.msecs': 34,
 'task.msecs': 127}
