proyfinal/src/viki/013/experimentInOfficeAgust.take6.output/d4d40d48-9b96-4b29-a864-58e09d9ada36.als.out
Reading from standard input... Use '--help' for help.
============================[ Problem Statistics ]=============================
|                                                                             |
|  Number of variables:         69608                                         |
|  Number of clauses:          118081                                         |
|  Parse time:                   0.02 s                                       |
|                                                                             |
============================[ Search Statistics ]==============================
| Conflicts |          ORIGINAL         |          LEARNT          | Progress |
|           |    Vars  Clauses Literals |    Limit  Clauses Lit/Cl |          |
===============================================================================
|       100 |   55931    79196   196330 |    29038       92      5 | 19.649 % |
===============================================================================
restarts              : 2
conflicts             : 158            (4584 /sec)
decisions             : 10894          (0.00 % random) (316043 /sec)
propagations          : 153845         (4463156 /sec)
conflict literals     : 873            (22.05 % deleted)
Memory used           : 18.49 MB
CPU time              : 0.03447 s

UNSATISFIABLE
